# Solution for model obj
# Objective value = 2.0833333333333330e+00
x0 0
x1 4.1666666666666730e-01
x2 2.4999999999999911e-01
x3 3.7499999999999989e-01
x4 1.6666666666666680e-01
x5 1.6666666666666680e-01
x6 3.7499999999999989e-01
x7 1.6666666666666680e-01
x8 1.6666666666666680e-01
x9 0
x10 0
x11 0
